p cnf 6 28
1 2 3 4 5 6 0
1 2 3 4 0
1 2 3 5 0
1 2 3 6 0
1 2 4 5 0
1 2 4 6 0
1 2 5 6 0
1 3 4 5 0
1 3 4 6 0
1 3 5 6 0
1 4 5 6 0
2 3 4 5 0
2 3 4 6 0
2 3 5 6 0
2 4 5 6 0
3 4 5 6 0
1 0
2 0
3 0
4 0
5 0
6 0
2 1 3 6 4 5 0
-2 -1 -3 -6 -4 -5 0
-1 -2 0
-1 3 4 5 0
-5 3 0
5 2 0